100
    1    81    81
    2    42    42
    3    42    42
    4    42    42
    5    56    56
    6    68    68
    7    25    25
    8    68    68
    9    14    14
   10    77    77
   11    63    63
   12    57    57
   13    75    75
   14    17    17
   15    41    41
   16    19    19
   17    19    19
   18    94    94
   19    12    12
   20    34    34
   21    25    25
   22    87    87
   23    37    37
   24    27    27
   25    10    10
   26    99    99
   27    86    86
   28    30    30
   29     6     6
   30    59    59
   31    46    46
   32   100   100
   33     7     7
   34    30    30
   35    18    18
   36    38    38
   37    79    79
   38    86    86
   39     8     8
   40    69    69
   41    51    51
   42    53    53
   43    53    53
   44    59    59
   45    38    38
   46    40    40
   47   100   100
   48    96    96
   49    82    82
   50    57    57
   51    70    70
   52    70    70
   53    24    24
   54    84    84
   55    57    57
   56    47    47
   57    15    15
   58    86    86
   59    97    97
   60    28    28
   61    19    19
   62    61    61
   63    77    77
   64    56    56
   65    85    85
   66    24    24
   67    35    35
   68    75    75
   69     6     6
   70    39    39
   71    15    15
   72    53    53
   73    98    98
   74    85    85
   75    14    14
   76    83    83
   77     2     2
   78    58    58
   79    80    80
   80    47    47
   81    53    53
   82    68    68
   83    63    63
   84    29    29
   85    48    48
   86    49    49
   87    59    59
   88     3     3
   89    25    25
   90    78    78
   91    56    56
   92    11    11
   93    71    71
   94    36    36
   95    15    15
   96    84    84
   97    81    81
   98    12    12
   99     2     2
  100    37    37
832
